c Reduced graph for DSJR500.1_5 generated by Cyril Grelier
p edge 330 2428
e 1 9
e 1 10
e 1 23
e 1 27
e 1 30
e 1 66
e 1 77
e 1 100
e 1 101
e 1 106
e 1 121
e 1 136
e 1 137
e 1 145
e 1 175
e 1 189
e 1 195
e 1 246
e 1 249
e 1 267
e 1 289
e 1 297
e 1 298
e 2 8
e 2 29
e 2 50
e 2 98
e 2 116
e 2 129
e 2 168
e 2 170
e 2 176
e 2 186
e 2 217
e 2 225
e 2 247
e 2 252
e 2 278
e 2 279
e 2 285
e 2 286
e 2 291
e 3 7
e 3 39
e 3 57
e 3 62
e 3 65
e 3 69
e 3 99
e 3 114
e 3 117
e 3 130
e 3 184
e 3 200
e 3 206
e 3 207
e 3 223
e 3 248
e 3 256
e 3 263
e 3 299
e 4 22
e 4 33
e 4 42
e 4 70
e 4 86
e 4 115
e 4 120
e 4 148
e 4 174
e 4 178
e 4 179
e 4 199
e 4 215
e 4 255
e 4 262
e 4 309
e 4 321
e 4 326
e 5 24
e 5 71
e 5 95
e 5 97
e 5 177
e 5 204
e 5 224
e 5 245
e 5 250
e 5 274
e 5 276
e 5 277
e 5 283
e 5 288
e 5 293
e 5 303
e 5 310
e 5 319
e 6 22
e 6 29
e 6 70
e 6 72
e 6 115
e 6 162
e 6 174
e 6 178
e 6 211
e 6 226
e 6 227
e 6 251
e 6 262
e 6 278
e 6 285
e 6 294
e 6 320
e 6 321
e 7 34
e 7 39
e 7 57
e 7 69
e 7 99
e 7 103
e 7 109
e 7 117
e 7 130
e 7 132
e 7 149
e 7 184
e 7 207
e 7 236
e 7 260
e 7 299
e 8 29
e 8 50
e 8 98
e 8 129
e 8 168
e 8 176
e 8 186
e 8 217
e 8 225
e 8 252
e 8 278
e 8 279
e 8 285
e 8 286
e 8 291
e 8 320
e 9 10
e 9 23
e 9 27
e 9 30
e 9 66
e 9 77
e 9 106
e 9 164
e 9 189
e 9 195
e 9 249
e 9 267
e 9 289
e 9 297
e 9 302
e 10 23
e 10 30
e 10 66
e 10 77
e 10 106
e 10 164
e 10 189
e 10 195
e 10 249
e 10 267
e 10 289
e 10 297
e 10 302
e 11 14
e 11 28
e 11 37
e 11 54
e 11 55
e 11 75
e 11 209
e 11 239
e 11 253
e 11 271
e 11 275
e 11 276
e 11 283
e 11 293
e 11 313
e 12 82
e 12 84
e 12 102
e 12 131
e 12 150
e 12 153
e 12 157
e 12 160
e 12 197
e 12 198
e 12 214
e 12 235
e 12 265
e 12 316
e 13 38
e 13 49
e 13 119
e 13 135
e 13 143
e 13 147
e 13 163
e 13 182
e 13 185
e 13 210
e 13 264
e 13 281
e 13 306
e 13 311
e 14 28
e 14 37
e 14 54
e 14 209
e 14 253
e 14 271
e 14 275
e 14 276
e 14 283
e 14 293
e 14 310
e 14 313
e 15 20
e 15 32
e 15 74
e 15 108
e 15 134
e 15 142
e 15 229
e 15 259
e 15 266
e 15 282
e 15 322
e 16 17
e 16 116
e 16 168
e 16 170
e 16 186
e 16 217
e 16 247
e 16 252
e 16 279
e 16 286
e 17 63
e 17 64
e 17 116
e 17 124
e 17 138
e 17 233
e 17 247
e 17 317
e 17 330
e 18 59
e 18 78
e 18 87
e 18 92
e 18 121
e 18 122
e 18 146
e 18 175
e 18 298
e 19 34
e 19 40
e 19 49
e 19 103
e 19 133
e 19 182
e 19 268
e 19 314
e 20 74
e 20 108
e 20 142
e 20 300
e 20 322
e 21 94
e 21 141
e 21 211
e 21 309
e 22 33
e 22 70
e 22 72
e 22 86
e 22 115
e 22 141
e 22 162
e 22 174
e 22 178
e 22 179
e 22 199
e 22 211
e 22 215
e 22 226
e 22 227
e 22 255
e 22 262
e 22 294
e 22 309
e 22 321
e 23 27
e 23 30
e 23 66
e 23 77
e 23 100
e 23 101
e 23 121
e 23 136
e 23 137
e 23 145
e 23 175
e 23 189
e 23 195
e 23 246
e 23 249
e 23 267
e 23 289
e 23 297
e 23 298
e 24 51
e 24 71
e 24 95
e 24 97
e 24 104
e 24 177
e 24 208
e 24 224
e 24 245
e 24 250
e 24 254
e 24 274
e 24 277
e 24 284
e 24 288
e 24 303
e 24 310
e 24 319
e 24 325
e 25 26
e 25 51
e 25 68
e 25 95
e 25 104
e 25 144
e 25 158
e 25 159
e 25 166
e 25 183
e 25 192
e 25 201
e 25 274
e 25 276
e 25 280
e 25 284
e 25 292
e 25 319
e 25 324
e 25 327
e 26 51
e 26 68
e 26 85
e 26 139
e 26 144
e 26 158
e 26 159
e 26 183
e 26 190
e 26 192
e 26 201
e 26 205
e 26 238
e 26 280
e 26 292
e 26 307
e 26 324
e 26 327
e 27 66
e 27 80
e 27 100
e 27 101
e 27 136
e 27 137
e 27 145
e 27 161
e 27 175
e 27 213
e 27 246
e 27 249
e 27 287
e 27 289
e 27 296
e 27 300
e 28 31
e 28 54
e 28 55
e 28 68
e 28 118
e 28 158
e 28 159
e 28 183
e 28 209
e 28 239
e 28 253
e 28 275
e 28 276
e 28 292
e 28 293
e 28 307
e 28 323
e 29 50
e 29 72
e 29 98
e 29 129
e 29 162
e 29 168
e 29 186
e 29 211
e 29 225
e 29 227
e 29 278
e 29 285
e 29 286
e 29 294
e 29 320
e 30 66
e 30 77
e 30 106
e 30 121
e 30 164
e 30 175
e 30 189
e 30 195
e 30 246
e 30 249
e 30 267
e 30 289
e 30 297
e 30 302
e 31 54
e 31 55
e 31 73
e 31 75
e 31 76
e 31 118
e 31 184
e 31 209
e 31 231
e 31 239
e 31 253
e 31 269
e 31 275
e 31 307
e 31 323
e 32 50
e 32 74
e 32 98
e 32 108
e 32 134
e 32 176
e 32 193
e 32 225
e 32 228
e 32 229
e 32 259
e 32 266
e 32 278
e 32 282
e 32 322
e 33 70
e 33 115
e 33 120
e 33 148
e 33 174
e 33 178
e 33 179
e 33 215
e 33 251
e 33 255
e 33 262
e 33 321
e 33 326
e 34 39
e 34 40
e 34 46
e 34 57
e 34 62
e 34 103
e 34 132
e 34 133
e 34 268
e 34 295
e 34 299
e 34 314
e 35 74
e 35 79
e 35 80
e 35 108
e 35 134
e 35 161
e 35 191
e 35 213
e 35 228
e 35 257
e 35 282
e 35 300
e 35 322
e 35 328
e 36 53
e 36 58
e 36 89
e 36 90
e 36 125
e 36 154
e 36 169
e 36 180
e 36 181
e 36 203
e 36 258
e 37 54
e 37 209
e 37 253
e 37 271
e 37 275
e 37 283
e 37 293
e 37 310
e 37 313
e 38 49
e 38 119
e 38 135
e 38 163
e 38 185
e 38 264
e 38 281
e 38 306
e 38 311
e 39 57
e 39 62
e 39 117
e 39 130
e 39 263
e 39 299
e 40 46
e 40 103
e 40 133
e 40 182
e 40 268
e 40 299
e 40 314
e 41 81
e 41 151
e 41 171
e 41 188
e 41 196
e 41 216
e 41 234
e 41 329
e 42 43
e 42 86
e 42 199
e 42 215
e 42 255
e 42 261
e 43 61
e 43 86
e 43 141
e 43 199
e 43 255
e 43 261
e 44 93
e 44 112
e 44 203
e 44 219
e 44 220
e 44 273
e 45 140
e 45 172
e 45 221
e 45 258
e 45 272
e 45 290
e 46 62
e 46 299
e 47 113
e 47 128
e 48 49
e 48 83
e 48 96
e 48 119
e 48 132
e 48 133
e 48 135
e 48 143
e 48 147
e 48 165
e 48 182
e 48 185
e 48 210
e 48 232
e 48 236
e 48 240
e 48 242
e 48 264
e 48 281
e 48 295
e 48 306
e 48 311
e 48 312
e 48 315
e 49 96
e 49 103
e 49 119
e 49 132
e 49 133
e 49 135
e 49 143
e 49 147
e 49 163
e 49 182
e 49 185
e 49 236
e 49 264
e 49 268
e 49 281
e 49 295
e 49 306
e 49 311
e 49 314
e 50 72
e 50 98
e 50 129
e 50 176
e 50 193
e 50 225
e 50 227
e 50 229
e 50 252
e 50 266
e 50 278
e 50 279
e 50 282
e 50 285
e 50 286
e 50 291
e 50 294
e 50 320
e 51 68
e 51 95
e 51 104
e 51 144
e 51 166
e 51 183
e 51 192
e 51 194
e 51 245
e 51 274
e 51 276
e 51 277
e 51 280
e 51 284
e 51 292
e 51 319
e 51 327
e 52 53
e 52 56
e 52 65
e 52 67
e 52 114
e 52 172
e 52 180
e 52 181
e 52 206
e 52 212
e 52 221
e 52 222
e 52 223
e 52 237
e 52 272
e 52 290
e 52 305
e 52 308
e 52 318
e 53 56
e 53 65
e 53 67
e 53 125
e 53 140
e 53 169
e 53 172
e 53 180
e 53 181
e 53 212
e 53 222
e 53 223
e 53 237
e 53 258
e 53 272
e 53 290
e 53 318
e 54 55
e 54 73
e 54 75
e 54 76
e 54 209
e 54 239
e 54 253
e 54 271
e 54 275
e 54 293
e 54 308
e 54 313
e 55 73
e 55 75
e 55 76
e 55 118
e 55 184
e 55 209
e 55 239
e 55 253
e 55 269
e 55 275
e 55 308
e 55 313
e 55 323
e 56 65
e 56 67
e 56 140
e 56 172
e 56 180
e 56 181
e 56 212
e 56 221
e 56 222
e 56 237
e 56 258
e 56 272
e 56 290
e 56 305
e 56 318
e 57 62
e 57 103
e 57 109
e 57 117
e 57 130
e 57 132
e 57 133
e 57 149
e 57 236
e 57 295
e 57 299
e 58 89
e 58 154
e 58 169
e 58 173
e 58 202
e 58 203
e 58 219
e 58 220
e 58 273
e 59 78
e 59 87
e 59 105
e 59 146
e 59 287
e 59 296
e 59 304
e 60 83
e 60 96
e 60 123
e 60 165
e 60 210
e 60 232
e 60 242
e 60 312
e 61 86
e 61 94
e 61 141
e 61 199
e 61 255
e 61 261
e 61 309
e 62 117
e 62 299
e 63 64
e 63 124
e 63 233
e 63 317
e 64 124
e 64 126
e 64 317
e 65 67
e 65 69
e 65 99
e 65 114
e 65 117
e 65 125
e 65 130
e 65 180
e 65 181
e 65 200
e 65 206
e 65 207
e 65 222
e 65 223
e 65 237
e 65 248
e 65 256
e 65 263
e 65 305
e 65 318
e 66 77
e 66 100
e 66 101
e 66 106
e 66 121
e 66 136
e 66 145
e 66 164
e 66 175
e 66 189
e 66 195
e 66 246
e 66 249
e 66 267
e 66 289
e 66 297
e 66 298
e 66 302
e 67 99
e 67 114
e 67 180
e 67 181
e 67 206
e 67 207
e 67 212
e 67 222
e 67 223
e 67 237
e 67 248
e 67 256
e 67 263
e 67 290
e 67 305
e 67 308
e 67 318
e 68 118
e 68 144
e 68 158
e 68 159
e 68 183
e 68 190
e 68 192
e 68 238
e 68 275
e 68 276
e 68 280
e 68 292
e 68 307
e 68 319
e 68 323
e 68 324
e 68 327
e 69 73
e 69 75
e 69 76
e 69 99
e 69 114
e 69 117
e 69 130
e 69 184
e 69 206
e 69 207
e 69 222
e 69 223
e 69 248
e 69 263
e 69 305
e 69 308
e 69 318
e 70 72
e 70 115
e 70 162
e 70 174
e 70 178
e 70 179
e 70 211
e 70 226
e 70 227
e 70 251
e 70 262
e 70 285
e 70 294
e 70 309
e 70 320
e 70 321
e 71 95
e 71 97
e 71 177
e 71 204
e 71 224
e 71 245
e 71 250
e 71 274
e 71 276
e 71 277
e 71 283
e 71 284
e 71 288
e 71 293
e 71 303
e 71 310
e 71 319
e 72 115
e 72 162
e 72 174
e 72 178
e 72 211
e 72 226
e 72 227
e 72 251
e 72 262
e 72 278
e 72 285
e 72 294
e 72 320
e 72 321
e 73 75
e 73 76
e 73 99
e 73 114
e 73 184
e 73 206
e 73 209
e 73 212
e 73 239
e 73 248
e 73 253
e 73 305
e 73 308
e 73 313
e 73 318
e 74 80
e 74 108
e 74 134
e 74 142
e 74 191
e 74 193
e 74 213
e 74 228
e 74 257
e 74 266
e 74 282
e 74 300
e 74 322
e 74 328
e 75 76
e 75 114
e 75 206
e 75 209
e 75 212
e 75 239
e 75 253
e 75 305
e 75 308
e 75 313
e 75 318
e 76 99
e 76 114
e 76 184
e 76 206
e 76 207
e 76 222
e 76 239
e 76 248
e 76 305
e 76 308
e 76 318
e 77 106
e 77 164
e 77 189
e 77 195
e 77 249
e 77 267
e 77 289
e 77 297
e 77 302
e 78 87
e 78 101
e 78 105
e 78 122
e 78 136
e 78 137
e 78 146
e 78 175
e 78 246
e 78 287
e 78 296
e 78 298
e 78 304
e 79 120
e 79 148
e 79 152
e 79 161
e 79 178
e 79 191
e 79 213
e 79 228
e 79 243
e 79 251
e 79 257
e 79 321
e 79 326
e 79 328
e 80 100
e 80 145
e 80 161
e 80 191
e 80 213
e 80 228
e 80 257
e 80 297
e 80 300
e 80 322
e 80 328
e 81 84
e 81 102
e 81 131
e 81 171
e 81 196
e 81 216
e 81 230
e 81 234
e 81 265
e 81 270
e 81 301
e 81 329
e 82 84
e 82 102
e 82 131
e 82 150
e 82 153
e 82 160
e 82 197
e 82 198
e 82 214
e 82 265
e 82 316
e 83 96
e 83 123
e 83 165
e 83 167
e 83 210
e 83 232
e 83 240
e 83 242
e 83 312
e 83 315
e 84 102
e 84 131
e 84 150
e 84 160
e 84 197
e 84 230
e 84 265
e 84 316
e 85 123
e 85 139
e 85 144
e 85 158
e 85 190
e 85 201
e 85 205
e 85 238
e 85 324
e 85 327
e 86 179
e 86 199
e 86 215
e 86 255
e 86 261
e 86 309
e 87 92
e 87 105
e 87 122
e 87 146
e 87 175
e 87 246
e 87 296
e 87 298
e 88 104
e 88 111
e 88 127
e 88 166
e 88 194
e 88 218
e 88 245
e 88 254
e 88 274
e 88 277
e 88 284
e 89 90
e 89 140
e 89 154
e 89 169
e 89 202
e 89 203
e 89 258
e 90 140
e 90 154
e 90 169
e 90 202
e 90 258
e 91 92
e 91 107
e 91 122
e 91 155
e 91 241
e 91 250
e 92 121
e 92 122
e 92 298
e 93 112
e 93 219
e 93 220
e 93 273
e 94 141
e 94 261
e 94 309
e 95 97
e 95 104
e 95 177
e 95 208
e 95 224
e 95 245
e 95 250
e 95 274
e 95 276
e 95 277
e 95 280
e 95 283
e 95 284
e 95 288
e 95 310
e 95 319
e 95 325
e 96 119
e 96 135
e 96 143
e 96 147
e 96 163
e 96 165
e 96 185
e 96 210
e 96 232
e 96 240
e 96 242
e 96 264
e 96 281
e 96 306
e 96 311
e 96 312
e 96 315
e 97 107
e 97 155
e 97 177
e 97 208
e 97 224
e 97 241
e 97 245
e 97 250
e 97 254
e 97 274
e 97 277
e 97 284
e 97 288
e 97 303
e 97 310
e 97 319
e 97 325
e 98 116
e 98 129
e 98 176
e 98 186
e 98 187
e 98 217
e 98 225
e 98 247
e 98 252
e 98 278
e 98 279
e 98 285
e 98 286
e 98 291
e 98 320
e 99 114
e 99 117
e 99 130
e 99 184
e 99 206
e 99 207
e 99 222
e 99 223
e 99 248
e 99 263
e 99 305
e 99 318
e 100 101
e 100 105
e 100 136
e 100 137
e 100 145
e 100 146
e 100 161
e 100 175
e 100 191
e 100 213
e 100 246
e 100 287
e 100 296
e 101 105
e 101 136
e 101 137
e 101 145
e 101 146
e 101 175
e 101 246
e 101 249
e 101 287
e 101 289
e 101 296
e 102 131
e 102 150
e 102 160
e 102 196
e 102 216
e 102 230
e 102 234
e 102 265
e 102 270
e 102 301
e 102 316
e 102 329
e 103 132
e 103 133
e 103 143
e 103 149
e 103 182
e 103 236
e 103 268
e 103 295
e 103 299
e 103 314
e 104 127
e 104 166
e 104 192
e 104 194
e 104 224
e 104 245
e 104 274
e 104 277
e 104 280
e 104 284
e 104 319
e 105 136
e 105 137
e 105 145
e 105 146
e 105 175
e 105 246
e 105 287
e 105 296
e 105 298
e 105 304
e 106 121
e 106 164
e 106 189
e 106 204
e 106 249
e 106 267
e 106 289
e 106 302
e 107 155
e 107 177
e 107 208
e 107 218
e 107 224
e 107 241
e 107 245
e 107 250
e 107 254
e 107 288
e 107 325
e 108 134
e 108 142
e 108 229
e 108 259
e 108 266
e 108 282
e 108 300
e 108 322
e 109 132
e 109 149
e 109 165
e 109 167
e 109 184
e 109 231
e 109 236
e 109 240
e 109 260
e 109 269
e 109 315
e 110 116
e 110 138
e 110 151
e 110 176
e 110 187
e 110 188
e 110 229
e 110 247
e 110 259
e 110 279
e 110 291
e 110 330
e 111 127
e 111 166
e 111 194
e 111 218
e 111 254
e 111 284
e 112 173
e 112 219
e 112 220
e 112 273
e 113 128
e 113 156
e 114 117
e 114 130
e 114 180
e 114 181
e 114 184
e 114 206
e 114 207
e 114 212
e 114 222
e 114 223
e 114 237
e 114 248
e 114 263
e 114 305
e 114 308
e 114 318
e 115 120
e 115 148
e 115 162
e 115 174
e 115 178
e 115 179
e 115 211
e 115 226
e 115 227
e 115 251
e 115 262
e 115 294
e 115 320
e 115 321
e 115 326
e 116 124
e 116 129
e 116 138
e 116 170
e 116 186
e 116 187
e 116 188
e 116 233
e 116 247
e 116 252
e 116 279
e 116 286
e 116 291
e 116 317
e 116 330
e 117 130
e 117 184
e 117 200
e 117 206
e 117 207
e 117 223
e 117 248
e 117 256
e 117 263
e 117 299
e 118 139
e 118 144
e 118 158
e 118 159
e 118 183
e 118 190
e 118 231
e 118 238
e 118 269
e 118 275
e 118 292
e 118 307
e 118 323
e 118 324
e 119 135
e 119 143
e 119 147
e 119 163
e 119 185
e 119 210
e 119 232
e 119 264
e 119 281
e 119 306
e 119 311
e 119 312
e 120 148
e 120 152
e 120 156
e 120 174
e 120 178
e 120 179
e 120 243
e 120 244
e 120 251
e 120 321
e 120 326
e 121 122
e 121 175
e 121 246
e 121 267
e 121 298
e 122 146
e 122 175
e 122 246
e 122 298
e 123 139
e 123 165
e 123 167
e 123 190
e 123 205
e 123 238
e 123 242
e 124 126
e 124 138
e 124 233
e 124 247
e 124 317
e 124 330
e 125 180
e 125 181
e 125 200
e 125 223
e 125 256
e 125 263
e 126 138
e 126 188
e 126 216
e 126 233
e 126 317
e 126 330
e 127 166
e 127 192
e 127 194
e 127 274
e 127 284
e 128 156
e 128 244
e 129 168
e 129 170
e 129 176
e 129 186
e 129 217
e 129 225
e 129 247
e 129 252
e 129 278
e 129 279
e 129 285
e 129 286
e 129 291
e 129 320
e 130 184
e 130 200
e 130 206
e 130 207
e 130 222
e 130 223
e 130 248
e 130 256
e 130 263
e 130 318
e 131 150
e 131 153
e 131 157
e 131 160
e 131 197
e 131 198
e 131 214
e 131 230
e 131 235
e 131 265
e 131 270
e 131 301
e 131 316
e 132 133
e 132 143
e 132 149
e 132 182
e 132 236
e 132 240
e 132 268
e 132 295
e 132 299
e 132 314
e 132 315
e 133 143
e 133 149
e 133 182
e 133 236
e 133 268
e 133 295
e 133 299
e 133 306
e 133 314
e 134 142
e 134 191
e 134 193
e 134 228
e 134 229
e 134 257
e 134 259
e 134 266
e 134 282
e 134 322
e 134 328
e 135 143
e 135 147
e 135 163
e 135 182
e 135 185
e 135 210
e 135 264
e 135 281
e 135 306
e 135 311
e 136 137
e 136 145
e 136 146
e 136 175
e 136 246
e 136 287
e 136 296
e 136 298
e 137 145
e 137 146
e 137 161
e 137 175
e 137 213
e 137 246
e 137 287
e 137 296
e 138 151
e 138 187
e 138 188
e 138 233
e 138 247
e 138 279
e 138 291
e 138 317
e 138 330
e 139 158
e 139 159
e 139 167
e 139 190
e 139 231
e 139 238
e 139 269
e 139 307
e 139 323
e 139 324
e 140 169
e 140 172
e 140 221
e 140 258
e 140 272
e 140 290
e 141 255
e 141 261
e 141 309
e 142 229
e 142 300
e 142 322
e 143 147
e 143 163
e 143 182
e 143 185
e 143 210
e 143 236
e 143 264
e 143 268
e 143 281
e 143 295
e 143 306
e 143 311
e 143 312
e 143 314
e 144 158
e 144 159
e 144 183
e 144 190
e 144 192
e 144 201
e 144 238
e 144 276
e 144 280
e 144 292
e 144 307
e 144 324
e 144 327
e 145 146
e 145 161
e 145 191
e 145 213
e 145 246
e 145 257
e 145 287
e 145 296
e 146 175
e 146 246
e 146 287
e 146 296
e 146 298
e 146 304
e 147 163
e 147 185
e 147 210
e 147 232
e 147 264
e 147 281
e 147 306
e 147 311
e 147 312
e 148 152
e 148 174
e 148 178
e 148 179
e 148 243
e 148 244
e 148 251
e 148 321
e 148 326
e 149 167
e 149 184
e 149 236
e 149 240
e 149 260
e 149 295
e 149 315
e 150 160
e 150 197
e 150 198
e 150 214
e 150 230
e 150 265
e 150 316
e 151 171
e 151 187
e 151 188
e 151 196
e 151 216
e 151 259
e 151 329
e 151 330
e 152 156
e 152 243
e 152 244
e 152 287
e 152 304
e 152 321
e 152 326
e 153 157
e 153 160
e 153 197
e 153 198
e 153 214
e 153 235
e 153 265
e 154 169
e 154 202
e 154 203
e 154 219
e 154 258
e 154 273
e 155 177
e 155 208
e 155 218
e 155 241
e 155 250
e 155 254
e 155 325
e 156 244
e 156 304
e 157 160
e 157 214
e 157 235
e 158 159
e 158 183
e 158 190
e 158 231
e 158 238
e 158 269
e 158 275
e 158 276
e 158 292
e 158 307
e 158 323
e 158 324
e 159 183
e 159 190
e 159 231
e 159 238
e 159 269
e 159 275
e 159 276
e 159 292
e 159 307
e 159 323
e 159 324
e 160 197
e 160 198
e 160 214
e 160 235
e 160 265
e 160 270
e 160 301
e 160 316
e 161 191
e 161 213
e 161 228
e 161 243
e 161 251
e 161 257
e 161 287
e 161 326
e 161 328
e 162 174
e 162 211
e 162 226
e 162 227
e 162 262
e 162 285
e 162 294
e 162 309
e 162 320
e 163 185
e 163 210
e 163 232
e 163 264
e 163 281
e 163 306
e 163 311
e 164 189
e 164 195
e 164 249
e 164 289
e 164 297
e 164 302
e 165 167
e 165 240
e 165 242
e 165 260
e 165 312
e 165 315
e 166 192
e 166 194
e 166 274
e 166 280
e 166 284
e 166 327
e 167 231
e 167 236
e 167 240
e 167 242
e 167 260
e 167 315
e 168 170
e 168 186
e 168 217
e 168 252
e 168 285
e 168 286
e 169 181
e 169 202
e 169 203
e 169 258
e 170 186
e 170 217
e 170 247
e 170 252
e 170 279
e 170 286
e 171 188
e 171 196
e 171 216
e 171 230
e 171 234
e 171 301
e 171 329
e 172 212
e 172 221
e 172 237
e 172 272
e 172 290
e 173 202
e 173 219
e 173 220
e 173 273
e 174 178
e 174 179
e 174 215
e 174 226
e 174 227
e 174 251
e 174 255
e 174 262
e 174 294
e 174 309
e 174 321
e 174 326
e 175 246
e 175 249
e 175 267
e 175 296
e 175 298
e 176 186
e 176 187
e 176 193
e 176 225
e 176 229
e 176 252
e 176 259
e 176 266
e 176 278
e 176 279
e 176 285
e 176 286
e 176 291
e 177 208
e 177 224
e 177 241
e 177 245
e 177 250
e 177 254
e 177 274
e 177 277
e 177 284
e 177 288
e 177 303
e 177 319
e 177 325
e 178 179
e 178 215
e 178 226
e 178 243
e 178 251
e 178 262
e 178 321
e 178 326
e 179 199
e 179 215
e 179 251
e 179 255
e 179 262
e 179 309
e 179 321
e 179 326
e 180 181
e 180 200
e 180 222
e 180 223
e 180 237
e 180 256
e 180 258
e 180 263
e 180 290
e 180 318
e 181 200
e 181 222
e 181 223
e 181 237
e 181 256
e 181 258
e 181 290
e 181 318
e 182 236
e 182 264
e 182 268
e 182 295
e 182 306
e 182 311
e 182 314
e 183 275
e 183 276
e 183 280
e 183 292
e 183 307
e 183 319
e 183 323
e 183 324
e 184 206
e 184 207
e 184 248
e 184 260
e 185 210
e 185 232
e 185 264
e 185 281
e 185 306
e 185 311
e 185 312
e 186 217
e 186 247
e 186 252
e 186 279
e 186 286
e 186 291
e 187 188
e 187 233
e 187 247
e 187 252
e 187 259
e 187 279
e 187 286
e 187 291
e 187 317
e 187 330
e 188 196
e 188 216
e 188 233
e 188 259
e 188 317
e 188 329
e 188 330
e 189 195
e 189 249
e 189 267
e 189 289
e 189 297
e 189 302
e 190 201
e 190 205
e 190 238
e 190 307
e 190 324
e 190 327
e 191 213
e 191 228
e 191 257
e 191 282
e 191 300
e 191 322
e 191 328
e 192 194
e 192 201
e 192 274
e 192 280
e 192 319
e 192 327
e 193 225
e 193 228
e 193 229
e 193 266
e 193 278
e 193 282
e 193 320
e 193 322
e 193 328
e 194 218
e 194 245
e 194 254
e 194 274
e 194 277
e 194 280
e 194 284
e 195 249
e 195 289
e 195 297
e 195 302
e 196 216
e 196 230
e 196 234
e 196 270
e 196 301
e 196 329
e 197 198
e 197 214
e 197 235
e 197 265
e 197 316
e 198 214
e 198 235
e 198 265
e 198 316
e 199 215
e 199 255
e 199 261
e 199 309
e 200 207
e 200 223
e 200 256
e 200 263
e 201 205
e 201 238
e 201 280
e 201 324
e 201 327
e 202 219
e 202 220
e 202 273
e 203 219
e 203 220
e 203 273
e 204 271
e 204 283
e 204 288
e 204 293
e 204 303
e 204 310
e 205 238
e 205 324
e 205 327
e 206 207
e 206 222
e 206 223
e 206 237
e 206 248
e 206 263
e 206 305
e 206 308
e 206 318
e 207 222
e 207 223
e 207 248
e 207 256
e 207 263
e 207 305
e 207 318
e 208 218
e 208 224
e 208 241
e 208 245
e 208 250
e 208 254
e 208 274
e 208 277
e 208 284
e 208 288
e 208 325
e 209 239
e 209 253
e 209 271
e 209 275
e 209 292
e 209 293
e 209 313
e 209 323
e 210 232
e 210 264
e 210 281
e 210 306
e 210 311
e 210 312
e 211 226
e 211 227
e 211 262
e 211 278
e 211 285
e 211 294
e 211 309
e 211 320
e 212 221
e 212 222
e 212 237
e 212 272
e 212 290
e 212 305
e 212 308
e 212 318
e 213 228
e 213 243
e 213 257
e 213 287
e 213 300
e 213 328
e 214 235
e 214 265
e 214 270
e 214 301
e 214 316
e 215 255
e 215 261
e 215 262
e 215 309
e 216 230
e 216 234
e 216 301
e 216 329
e 217 247
e 217 252
e 217 279
e 217 286
e 218 241
e 218 245
e 218 254
e 218 277
e 218 325
e 219 220
e 219 273
e 220 273
e 221 237
e 221 272
e 221 290
e 222 223
e 222 237
e 222 248
e 222 256
e 222 263
e 222 290
e 222 305
e 222 308
e 222 318
e 223 248
e 223 256
e 223 263
e 223 318
e 224 245
e 224 250
e 224 274
e 224 277
e 224 283
e 224 284
e 224 288
e 224 303
e 224 310
e 224 319
e 224 325
e 225 227
e 225 229
e 225 252
e 225 266
e 225 278
e 225 279
e 225 282
e 225 285
e 225 286
e 225 291
e 225 320
e 226 227
e 226 251
e 226 262
e 226 278
e 226 285
e 226 294
e 226 320
e 226 321
e 226 326
e 227 262
e 227 278
e 227 285
e 227 294
e 227 320
e 228 251
e 228 257
e 228 266
e 228 282
e 228 300
e 228 322
e 228 328
e 229 259
e 229 266
e 229 282
e 229 291
e 229 322
e 230 234
e 230 265
e 230 270
e 230 301
e 230 316
e 230 329
e 231 238
e 231 260
e 231 269
e 231 275
e 231 307
e 231 323
e 232 242
e 232 264
e 232 281
e 232 312
e 233 247
e 233 317
e 233 330
e 234 270
e 234 301
e 234 329
e 235 265
e 236 240
e 236 260
e 236 268
e 236 295
e 236 306
e 236 314
e 236 315
e 237 272
e 237 290
e 237 305
e 237 308
e 237 318
e 238 307
e 238 324
e 238 327
e 239 253
e 239 275
e 239 305
e 239 308
e 239 313
e 239 323
e 240 242
e 240 260
e 240 295
e 240 315
e 241 250
e 241 254
e 241 288
e 241 325
e 242 312
e 242 315
e 243 244
e 243 251
e 243 321
e 243 326
e 244 287
e 244 304
e 245 250
e 245 254
e 245 274
e 245 277
e 245 284
e 245 288
e 245 319
e 245 325
e 246 249
e 246 267
e 246 287
e 246 296
e 246 298
e 247 252
e 247 279
e 247 286
e 247 291
e 247 317
e 247 330
e 248 256
e 248 263
e 248 305
e 248 308
e 248 318
e 249 267
e 249 289
e 249 297
e 249 302
e 250 254
e 250 277
e 250 288
e 250 303
e 250 325
e 251 262
e 251 321
e 251 326
e 252 279
e 252 286
e 252 291
e 253 271
e 253 275
e 253 293
e 253 313
e 253 323
e 254 277
e 254 284
e 254 325
e 255 261
e 255 262
e 255 309
e 256 263
e 257 282
e 257 300
e 257 322
e 257 328
e 258 290
e 259 266
e 260 269
e 260 315
e 261 309
e 262 285
e 262 294
e 262 309
e 262 320
e 262 321
e 263 318
e 264 281
e 264 306
e 264 311
e 264 312
e 265 270
e 265 301
e 265 316
e 266 278
e 266 282
e 266 322
e 267 289
e 267 298
e 268 295
e 268 299
e 268 314
e 269 275
e 269 307
e 269 323
e 270 301
e 270 329
e 271 283
e 271 293
e 271 310
e 271 313
e 272 290
e 272 305
e 274 277
e 274 280
e 274 284
e 274 319
e 274 325
e 275 276
e 275 292
e 275 307
e 275 313
e 275 323
e 276 280
e 276 283
e 276 292
e 276 293
e 276 307
e 276 310
e 276 319
e 277 284
e 277 288
e 277 319
e 277 325
e 278 282
e 278 285
e 278 294
e 278 320
e 279 286
e 279 291
e 280 284
e 280 292
e 280 319
e 280 327
e 281 306
e 281 311
e 281 312
e 282 322
e 282 328
e 283 293
e 283 303
e 283 310
e 284 319
e 284 325
e 285 294
e 285 320
e 286 291
e 287 296
e 287 304
e 288 303
e 288 310
e 288 325
e 289 297
e 289 302
e 290 305
e 290 318
e 292 307
e 292 323
e 292 324
e 293 303
e 293 310
e 293 313
e 294 320
e 295 306
e 295 314
e 295 315
e 296 304
e 297 300
e 297 302
e 299 314
e 300 322
e 300 328
e 301 329
e 303 310
e 305 308
e 305 318
e 306 311
e 306 314
e 307 323
e 307 324
e 308 313
e 308 318
e 310 319
e 312 315
e 317 330
e 321 326
e 322 328
e 324 327
